Route #1: 4 45 29 5 48 30
Route #2: 2 28 21 61 22 62
Route #3: 47 36 60 20 37 15 57 27
Route #4: 46 8 19 54 13 52 34
Route #5: 7 53 59 14 35
Route #6: 11 38 10 58
Route #7: 40 9 32 44 3
Route #8: 39 31 55 25 50 18 24 49
Route #9: 23 56 41 64 42 43 1
Route #10: 6 33 63 16 51 17 12
Route #11: 26
Cost 826